# Defining the force field type, atom masses pair coeeficients and bond types and coeffcients

mass 1  1.0 # Polymer atoms
mass 2  1.0 # lj fluid atoms

pair_style lj/cut 3.5

pair_coeff 1 1 0.3 1.0 3.5
pair_coeff 1 2 0.3 1.0 3.5
pair_coeff 2 2 0.3 1.0 3.5

bond_style fene
bond_coeff 1 30.0 1.5 1.0 1.0